c This is an instance of the exact track of PACE 2020 Challenge, see https://pacechallenge.org/2020/ 
c TYPE: generated 
c ORIGIN: Python networkx package 
c DESCRIPTION: A random cubic graph generated using random_regular_graph function from Python’s networkx package 
p tdp 170 255
1 2
1 31
1 35
2 165
2 30
3 4
3 28
3 24
4 13
4 152
5 6
5 67
5 161
6 59
6 68
7 8
7 76
7 36
8 27
8 61
9 10
9 101
9 56
10 140
10 39
11 12
11 101
11 81
12 118
12 158
13 14
13 103
14 101
14 121
15 16
15 58
15 160
16 100
16 154
17 18
17 108
17 170
18 114
18 93
19 20
19 161
19 163
20 153
20 92
21 22
21 53
21 94
22 83
22 104
23 24
23 74
23 159
24 79
25 26
25 136
25 153
26 44
26 164
27 107
27 147
28 73
28 76
29 30
29 91
29 67
30 170
31 68
31 105
32 33
32 34
32 111
33 42
33 167
34 35
34 62
35 165
36 37
36 119
37 93
37 132
38 39
38 88
38 120
39 72
40 41
40 120
40 127
41 58
41 142
42 132
42 146
43 44
43 135
43 159
44 119
45 46
45 85
45 128
46 117
46 87
47 48
47 95
47 62
48 139
48 163
49 50
49 149
49 87
50 102
50 129
51 52
51 154
51 122
52 98
52 138
53 158
53 135
54 55
54 134
54 80
55 157
55 145
56 57
56 91
57 91
57 106
58 136
59 60
59 72
60 92
60 117
61 115
61 111
62 134
63 64
63 103
63 164
64 113
64 71
65 66
65 130
65 120
66 129
66 78
67 89
68 98
69 70
69 143
69 108
70 104
70 115
71 72
71 84
73 163
73 137
74 75
74 148
75 116
75 92
76 139
77 78
77 166
77 143
78 107
79 80
79 94
80 124
81 82
81 116
82 149
82 166
83 84
83 109
84 90
85 155
85 160
86 87
86 142
86 168
88 89
88 117
89 105
90 122
90 164
93 95
94 137
95 153
96 97
96 104
96 122
97 150
97 139
98 99
99 106
99 144
100 116
100 133
102 105
102 126
103 135
106 130
107 158
108 109
109 130
110 111
110 125
110 118
112 113
112 138
112 166
113 141
114 121
114 162
115 151
118 150
119 138
121 151
123 124
123 145
123 169
124 152
125 126
125 151
126 131
127 128
127 147
128 137
129 169
131 132
131 162
133 134
133 136
140 141
140 162
141 144
142 143
144 150
145 146
146 167
147 157
148 154
148 159
149 155
152 170
155 156
156 157
156 167
160 168
161 168
165 169
